44
49
56
21
15
13
0
14
12
94
0
154
25
120
36
0
39
12
32
0
15
111
18
17
59
42
0
0
91
84
27
72
0
12
41
10
54
0
112
136
59
25
0
61
69
29
0
73
130
86
93
14
0
32
12
145
12
0
34
15
89
25
14
0
0
26
44
14
66
17
0
0
53
49
0
61
144
28
0
67
0
52
78
24
16
11
27
22
0
49
0
35
0
64
34
25
90
39
0
0
